WARNING: for repeatability, setting FPU to use double precision
============================[ Problem Statistics ]=============================
|                                                                             |
|  Number of variables:         27899                                         |
|  Number of clauses:          578058                                         |
|  Parse time:                   0.19 s                                       |
|  Eliminated clauses:           0.01 Mb                                      |
|  Simplification time:          0.16 s                                       |
|                                                                             |
============================[ Search Statistics ]==============================
| Conflicts |          ORIGINAL         |          LEARNT          | Progress |
|           |    Vars  Clauses Literals |    Limit  Clauses Lit/Cl |          |
===============================================================================
===============================================================================
restarts              : 1
conflicts             : 8              (23 /sec)
decisions             : 382            (0.00 % random) (1083 /sec)
propagations          : 28153          (79849 /sec)
conflict literals     : 319            (0.00 % deleted)
Memory used           : 59.00 MB
CPU time              : 0.352577 s

SATISFIABLE
